Lithiated
1.0
5.500000 0.000000 0.000000
0.000000 5.500000 0.000000
0.000000 0.000000 5.500000
Li Fe O
1 1 2
Direct
0.250000 0.250000 0.250000
0.000000 0.000000 0.000000
0.500000 0.500000 0.000000
0.500000 0.000000 0.500000
