&CONTROL
  calculation = 'relax',
  prefix = 'lithiated',
  pseudo_dir = './pseudo',
  outdir = './tmp',
/
&SYSTEM
  ibrav = 0,
  nat = 4,
  ntyp = 3,
  ecutwfc = 60.0,
  ecutrho = 480.0,
  occupations = 'fixed',
/
&ELECTRONS
  conv_thr = 1.0d-8,
/
ATOMIC_SPECIES
Li 6.941 Li.UPF
Fe 55.845 Fe.UPF
O  15.999 O.UPF

CELL_PARAMETERS angstrom
5.10 0.00 0.00
0.00 5.10 0.00
0.00 0.00 5.10

ATOMIC_POSITIONS crystal
Li 0.25 0.25 0.25
Fe 0.00 0.00 0.00
O  0.50 0.50 0.00
O  0.50 0.00 0.50

K_POINTS automatic
6 6 6 0 0 0
