ecut 20.0
ngkpt 6 6 6
nshiftk 1
shiftk 0.0 0.0 0.0
tolvrs 1.0d-10
occopt 1
pseudos "Li.psp8, Fe.psp8, O.psp8"
natom 4
ntypat 3
znucl 3 26 8
typat 1 2 3 3
acell 3*9.6376032
rprim
 1.0 0.0 0.0
 0.0 1.0 0.0
 0.0 0.0 1.0
xred
 0.25 0.25 0.25
 0.0 0.0 0.0
 0.5 0.5 0.0
 0.5 0.0 0.5
